NAME : Unnamed.385.tour
COMMENT : Length = 385
COMMENT : Found by LKH [Keld Helsgaun] Thu Oct 02 13:46:52 2014
TYPE : TOUR
DIMENSION : 18
TOUR_SECTION
1
2
8
4
17
13
15
16
14
12
10
11
3
5
9
6
7
18
-1
EOF
